(declare-const _a_0_ Real)
(declare-const _a_1_ Real)
(declare-const _a_2_ Real)
(declare-const _a_3_ Real)
(declare-const _a_4_ Real)
(declare-const _a_5_ Real)
(declare-const _a_6_ Real)
(declare-const _a_7_ Real)
(declare-const _a_8_ Real)
(declare-const _a_9_ Real)
(declare-const _a_10_ Real)
(declare-const _a_11_ Real)
(declare-const _a_12_ Real)
(declare-const _a_13_ Real)
(declare-const _a_14_ Real)
(declare-const _a_15_ Real)
(declare-const _a_16_ Real)
(declare-const _a_17_ Real)
(assert (forall ((unowned_0 Real) (total_0 Real) (exclusive_0 Real) (nonexclusive_0 Real) (invalid_0 Real) ) (=> (and (>= (+ (* 1 invalid_0) (* -1. 1) ) 0)) (and (>= (* 0 1)  0)))))
(assert (forall ((unowned_0 Real) (total_0 Real) (exclusive_0 Real) (nonexclusive_0 Real) (invalid_0 Real) ) (=> (and (>= (+ (* 1 invalid_0) (* -1. 1) ) 0)) (and (>= (* 0 1)  0)))))
(assert (forall ((unowned_0 Real) (total_0 Real) (exclusive_0 Real) (nonexclusive_0 Real) (invalid_0 Real) ) (=> (and (>= (+ (* 1 invalid_0) (* -1. 1) ) 0)) (and (>= (* 0 1)  0)))))
(assert (forall ((unowned_0 Real) (total_0 Real) (exclusive_0 Real) (nonexclusive_0 Real) (invalid_0 Real) ) (=> (and (>= (+ (* 1 invalid_0) (* -1. 1) ) 0)) (and (>= (+ (* 1 invalid_0) (* 0 1) ) 0)))))
(assert (forall ((unowned_0 Real) (total_0 Real) (exclusive_0 Real) (nonexclusive_0 Real) (invalid_0 Real) ) (=> (and (>= (+ (* 1 invalid_0) (* -1. 1) ) 0)) (and (>= (* 0 invalid_0)  0)))))
(assert (forall ((unowned_0 Real) (total_0 Real) (exclusive_0 Real) (nonexclusive_0 Real) (invalid_0 Real) ) (=> (and (>= (+ (* 1 invalid_0) (* -1. 1) ) 0)) (and (>= (* 0 invalid_0)  0)))))
(assert (forall ((unowned_0 Real) (total_0 Real) (exclusive_0 Real) (nonexclusive_0 Real) (invalid_0 Real) ) (=> (and (>= (+ (* 1 exclusive_0) (* 0 1) ) 0)(>= (+ (* 1 nonexclusive_0) (* 0 1) ) 0)(>= (+ (* 1 unowned_0) (* 0 1) ) 0)(>= (+ (* 1 invalid_0) (* 0 1) ) 0)(>= (+ (* 1 total_0) (* -1 unowned_0) (* -1 invalid_0) (* -1 exclusive_0) (* -1 nonexclusive_0) ) 0)(>= (+ (* 1 unowned_0) (* 1 invalid_0) (* 1 exclusive_0) (* 1 nonexclusive_0) (* -1 total_0) ) 0)(>= (* -1. 1)  0)) (and (>= (* 1. 1)  0)))))
(assert (forall ((unowned_0 Real) (total_0 Real) (exclusive_0 Real) (nonexclusive_0 Real) (invalid_0 Real) ) (=> (and (>= (+ (* 1 exclusive_0) (* 0 1) ) 0)(>= (+ (* 1 nonexclusive_0) (* 0 1) ) 0)(>= (+ (* 1 unowned_0) (* 0 1) ) 0)(>= (+ (* 1 invalid_0) (* 0 1) ) 0)(>= (+ (* 1 total_0) (* -1 unowned_0) (* -1 invalid_0) (* -1 exclusive_0) (* -1 nonexclusive_0) ) 0)(>= (+ (* 1 unowned_0) (* 1 invalid_0) (* 1 exclusive_0) (* 1 nonexclusive_0) (* -1 total_0) ) 0)(>= (* 1. 1)  0)(>= (+ (* 1 invalid_0) (* -1. 1) ) 0)) (and (>= (* 0 1)  0)))))
(assert (forall ((unowned_0 Real) (total_0 Real) (exclusive_0 Real) (nonexclusive_0 Real) (invalid_0 Real) ) (=> (and (>= (+ (* 1 exclusive_0) (* 0 1) ) 0)(>= (+ (* 1 nonexclusive_0) (* 0 1) ) 0)(>= (+ (* 1 unowned_0) (* 0 1) ) 0)(>= (+ (* 1 invalid_0) (* 0 1) ) 0)(>= (+ (* 1 total_0) (* -1 unowned_0) (* -1 invalid_0) (* -1 exclusive_0) (* -1 nonexclusive_0) ) 0)(>= (+ (* 1 unowned_0) (* 1 invalid_0) (* 1 exclusive_0) (* 1 nonexclusive_0) (* -1 total_0) ) 0)(>= (* 1. 1)  0)(>= (+ (* 1 invalid_0) (* -1. 1) ) 0)) (and (>= (+ (* _a_0_ nonexclusive_0) (* _a_1_ 1) (* _a_2_ exclusive_0) ) 0)))))
(assert (forall ((unowned_0 Real) (total_0 Real) (exclusive_0 Real) (nonexclusive_0 Real) (invalid_0 Real) ) (=> (and (>= (+ (* 1 exclusive_0) (* 0 1) ) 0)(>= (+ (* 1 nonexclusive_0) (* 0 1) ) 0)(>= (+ (* 1 unowned_0) (* 0 1) ) 0)(>= (+ (* 1 invalid_0) (* 0 1) ) 0)(>= (+ (* 1 total_0) (* -1 unowned_0) (* -1 invalid_0) (* -1 exclusive_0) (* -1 nonexclusive_0) ) 0)(>= (+ (* 1 unowned_0) (* 1 invalid_0) (* 1 exclusive_0) (* 1 nonexclusive_0) (* -1 total_0) ) 0)(>= (* 1. 1)  0)(>= (+ (* 1 invalid_0) (* -1. 1) ) 0)) (and (>= (+ (* 1 unowned_0) (* 1. 1) ) 0)))))
(assert (forall ((unowned_0 Real) (total_0 Real) (exclusive_0 Real) (nonexclusive_0 Real) (invalid_0 Real) ) (=> (and (>= (+ (* 1 exclusive_0) (* 0 1) ) 0)(>= (+ (* 1 nonexclusive_0) (* 0 1) ) 0)(>= (+ (* 1 unowned_0) (* 0 1) ) 0)(>= (+ (* 1 invalid_0) (* 0 1) ) 0)(>= (+ (* 1 total_0) (* -1 unowned_0) (* -1 invalid_0) (* -1 exclusive_0) (* -1 nonexclusive_0) ) 0)(>= (+ (* 1 unowned_0) (* 1 invalid_0) (* 1 exclusive_0) (* 1 nonexclusive_0) (* -1 total_0) ) 0)(>= (* 1. 1)  0)(>= (+ (* 1 invalid_0) (* -1. 1) ) 0)) (and (>= (+ (* 1 invalid_0) (* -1. 1) ) 0)))))
(assert (forall ((unowned_0 Real) (total_0 Real) (exclusive_0 Real) (nonexclusive_0 Real) (invalid_0 Real) ) (=> (and (>= (+ (* 1 exclusive_0) (* 0 1) ) 0)(>= (+ (* 1 nonexclusive_0) (* 0 1) ) 0)(>= (+ (* 1 unowned_0) (* 0 1) ) 0)(>= (+ (* 1 invalid_0) (* 0 1) ) 0)(>= (+ (* 1 total_0) (* -1 unowned_0) (* -1 invalid_0) (* -1 exclusive_0) (* -1 nonexclusive_0) ) 0)(>= (+ (* 1 unowned_0) (* 1 invalid_0) (* 1 exclusive_0) (* 1 nonexclusive_0) (* -1 total_0) ) 0)(>= (* 1. 1)  0)(>= (+ (* 1 invalid_0) (* -1. 1) ) 0)) (and (>= (+ (* 1 total_0) (* -1 unowned_0) (* (* -1 _a_1_) 1) (* -1 invalid_0) (* (* -1 _a_0_) nonexclusive_0) (* (* -1 _a_2_) exclusive_0) ) 0)))))
(assert (forall ((unowned_0 Real) (total_0 Real) (exclusive_0 Real) (nonexclusive_0 Real) (invalid_0 Real) ) (=> (and (>= (+ (* 1 exclusive_0) (* 0 1) ) 0)(>= (+ (* 1 nonexclusive_0) (* 0 1) ) 0)(>= (+ (* 1 unowned_0) (* 0 1) ) 0)(>= (+ (* 1 invalid_0) (* 0 1) ) 0)(>= (+ (* 1 total_0) (* -1 unowned_0) (* -1 invalid_0) (* -1 exclusive_0) (* -1 nonexclusive_0) ) 0)(>= (+ (* 1 unowned_0) (* 1 invalid_0) (* 1 exclusive_0) (* 1 nonexclusive_0) (* -1 total_0) ) 0)(>= (* 1. 1)  0)(>= (+ (* 1 invalid_0) (* -1. 1) ) 0)) (and (>= (+ (* 1 unowned_0) (* _a_1_ 1) (* 1 invalid_0) (* _a_0_ nonexclusive_0) (* _a_2_ exclusive_0) (* -1 total_0) ) 0)))))
(assert (forall ((unowned_0 Real) (total_0 Real) (exclusive_0 Real) (nonexclusive_0 Real) (invalid_0 Real) ) (=> (and (>= (+ (* 1 exclusive_0) (* 0 1) ) 0)(>= (+ (* 1 nonexclusive_0) (* 0 1) ) 0)(>= (+ (* 1 unowned_0) (* 0 1) ) 0)(>= (+ (* 1 invalid_0) (* 0 1) ) 0)(>= (+ (* 1 total_0) (* -1 unowned_0) (* -1 invalid_0) (* -1 exclusive_0) (* -1 nonexclusive_0) ) 0)(>= (+ (* 1 unowned_0) (* 1 invalid_0) (* 1 exclusive_0) (* 1 nonexclusive_0) (* -1 total_0) ) 0)(>= (* 1. 1)  0)(>= (+ (* 1 invalid_0) (* -1. 1) ) 0)) (and (>= (* 1. 1)  0)))))
(assert (forall ((unowned_0 Real) (total_0 Real) (exclusive_0 Real) (nonexclusive_0 Real) (invalid_0 Real) ) (=> (and (>= (+ (* 1 exclusive_0) (* 0 1) ) 0)(>= (+ (* 1 nonexclusive_0) (* 0 1) ) 0)(>= (+ (* 1 unowned_0) (* 0 1) ) 0)(>= (+ (* 1 invalid_0) (* 0 1) ) 0)(>= (+ (* 1 total_0) (* -1 unowned_0) (* -1 invalid_0) (* -1 exclusive_0) (* -1 nonexclusive_0) ) 0)(>= (+ (* 1 unowned_0) (* 1 invalid_0) (* 1 exclusive_0) (* 1 nonexclusive_0) (* -1 total_0) ) 0)(>= (* 1. 1)  0)(>= (+ (* 1 invalid_0) (* -1. 1) ) 0)) (and (>= (* 0 1)  0)))))
(assert (forall ((unowned_0 Real) (total_0 Real) (exclusive_0 Real) (nonexclusive_0 Real) (invalid_0 Real) ) (=> (and (>= (+ (* 1 exclusive_0) (* 0 1) ) 0)(>= (+ (* 1 nonexclusive_0) (* 0 1) ) 0)(>= (+ (* 1 unowned_0) (* 0 1) ) 0)(>= (+ (* 1 invalid_0) (* 0 1) ) 0)(>= (+ (* 1 total_0) (* -1 unowned_0) (* -1 invalid_0) (* -1 exclusive_0) (* -1 nonexclusive_0) ) 0)(>= (+ (* 1 unowned_0) (* 1 invalid_0) (* 1 exclusive_0) (* 1 nonexclusive_0) (* -1 total_0) ) 0)(>= (* 1. 1)  0)(>= (+ (* 1 invalid_0) (* -1. 1) ) 0)) (and (>= (* 0 1)  0)))))
(assert (forall ((unowned_0 Real) (total_0 Real) (exclusive_0 Real) (nonexclusive_0 Real) (invalid_0 Real) ) (=> (and (>= (+ (* 1 exclusive_0) (* 0 1) ) 0)(>= (+ (* 1 nonexclusive_0) (* 0 1) ) 0)(>= (+ (* 1 unowned_0) (* 0 1) ) 0)(>= (+ (* 1 invalid_0) (* 0 1) ) 0)(>= (+ (* 1 total_0) (* -1 unowned_0) (* -1 invalid_0) (* -1 exclusive_0) (* -1 nonexclusive_0) ) 0)(>= (+ (* 1 unowned_0) (* 1 invalid_0) (* 1 exclusive_0) (* 1 nonexclusive_0) (* -1 total_0) ) 0)(>= (* 1. 1)  0)(>= (+ (* 1 invalid_0) (* -1. 1) ) 0)) (and (>= (+ (* _a_3_ unowned_0) (* _a_4_ 1) (* _a_5_ invalid_0) (* _a_6_ nonexclusive_0) (* _a_7_ exclusive_0) ) 0)))))
(assert (forall ((unowned_0 Real) (total_0 Real) (exclusive_0 Real) (nonexclusive_0 Real) (invalid_0 Real) ) (=> (and (>= (+ (* 1 exclusive_0) (* 0 1) ) 0)(>= (+ (* 1 nonexclusive_0) (* 0 1) ) 0)(>= (+ (* 1 unowned_0) (* 0 1) ) 0)(>= (+ (* 1 invalid_0) (* 0 1) ) 0)(>= (+ (* 1 total_0) (* -1 unowned_0) (* -1 invalid_0) (* -1 exclusive_0) (* -1 nonexclusive_0) ) 0)(>= (+ (* 1 unowned_0) (* 1 invalid_0) (* 1 exclusive_0) (* 1 nonexclusive_0) (* -1 total_0) ) 0)(>= (* 1. 1)  0)(>= (+ (* 1 invalid_0) (* -1. 1) ) 0)) (and (>= (+ (* 1 total_0) (* (* -1 _a_3_) unowned_0) (* (+ -1. (* -1 _a_4_)) 1) (* (* -1 _a_5_) invalid_0) (* (* -1 _a_6_) nonexclusive_0) (* (* -1 _a_7_) exclusive_0) ) 0)))))
(assert (forall ((unowned_0 Real) (total_0 Real) (exclusive_0 Real) (nonexclusive_0 Real) (invalid_0 Real) ) (=> (and (>= (+ (* 1 exclusive_0) (* 0 1) ) 0)(>= (+ (* 1 nonexclusive_0) (* 0 1) ) 0)(>= (+ (* 1 unowned_0) (* 0 1) ) 0)(>= (+ (* 1 invalid_0) (* 0 1) ) 0)(>= (+ (* 1 total_0) (* -1 unowned_0) (* -1 invalid_0) (* -1 exclusive_0) (* -1 nonexclusive_0) ) 0)(>= (+ (* 1 unowned_0) (* 1 invalid_0) (* 1 exclusive_0) (* 1 nonexclusive_0) (* -1 total_0) ) 0)(>= (* 1. 1)  0)(>= (+ (* 1 invalid_0) (* -1. 1) ) 0)) (and (>= (+ (* _a_3_ unowned_0) (* (+ 1. _a_4_) 1) (* _a_5_ invalid_0) (* _a_6_ nonexclusive_0) (* _a_7_ exclusive_0) (* -1 total_0) ) 0)))))
(assert (forall ((unowned_0 Real) (total_0 Real) (exclusive_0 Real) (nonexclusive_0 Real) (invalid_0 Real) ) (=> (and (>= (+ (* 1 exclusive_0) (* 0 1) ) 0)(>= (+ (* 1 nonexclusive_0) (* 0 1) ) 0)(>= (+ (* 1 unowned_0) (* 0 1) ) 0)(>= (+ (* 1 invalid_0) (* 0 1) ) 0)(>= (+ (* 1 total_0) (* -1 unowned_0) (* -1 invalid_0) (* -1 exclusive_0) (* -1 nonexclusive_0) ) 0)(>= (+ (* 1 unowned_0) (* 1 invalid_0) (* 1 exclusive_0) (* 1 nonexclusive_0) (* -1 total_0) ) 0)(>= (* 1. 1)  0)(>= (+ (* 1 nonexclusive_0) (* -1. 1) ) 0)) (and (>= (+ (* 1 exclusive_0) (* 1. 1) ) 0)))))
(assert (forall ((unowned_0 Real) (total_0 Real) (exclusive_0 Real) (nonexclusive_0 Real) (invalid_0 Real) ) (=> (and (>= (+ (* 1 exclusive_0) (* 0 1) ) 0)(>= (+ (* 1 nonexclusive_0) (* 0 1) ) 0)(>= (+ (* 1 unowned_0) (* 0 1) ) 0)(>= (+ (* 1 invalid_0) (* 0 1) ) 0)(>= (+ (* 1 total_0) (* -1 unowned_0) (* -1 invalid_0) (* -1 exclusive_0) (* -1 nonexclusive_0) ) 0)(>= (+ (* 1 unowned_0) (* 1 invalid_0) (* 1 exclusive_0) (* 1 nonexclusive_0) (* -1 total_0) ) 0)(>= (* 1. 1)  0)(>= (+ (* 1 nonexclusive_0) (* -1. 1) ) 0)) (and (>= (* 0 1)  0)))))
(assert (forall ((unowned_0 Real) (total_0 Real) (exclusive_0 Real) (nonexclusive_0 Real) (invalid_0 Real) ) (=> (and (>= (+ (* 1 exclusive_0) (* 0 1) ) 0)(>= (+ (* 1 nonexclusive_0) (* 0 1) ) 0)(>= (+ (* 1 unowned_0) (* 0 1) ) 0)(>= (+ (* 1 invalid_0) (* 0 1) ) 0)(>= (+ (* 1 total_0) (* -1 unowned_0) (* -1 invalid_0) (* -1 exclusive_0) (* -1 nonexclusive_0) ) 0)(>= (+ (* 1 unowned_0) (* 1 invalid_0) (* 1 exclusive_0) (* 1 nonexclusive_0) (* -1 total_0) ) 0)(>= (* 1. 1)  0)(>= (+ (* 1 nonexclusive_0) (* -1. 1) ) 0)) (and (>= (* 0 1)  0)))))
(assert (forall ((unowned_0 Real) (total_0 Real) (exclusive_0 Real) (nonexclusive_0 Real) (invalid_0 Real) ) (=> (and (>= (+ (* 1 exclusive_0) (* 0 1) ) 0)(>= (+ (* 1 nonexclusive_0) (* 0 1) ) 0)(>= (+ (* 1 unowned_0) (* 0 1) ) 0)(>= (+ (* 1 invalid_0) (* 0 1) ) 0)(>= (+ (* 1 total_0) (* -1 unowned_0) (* -1 invalid_0) (* -1 exclusive_0) (* -1 nonexclusive_0) ) 0)(>= (+ (* 1 unowned_0) (* 1 invalid_0) (* 1 exclusive_0) (* 1 nonexclusive_0) (* -1 total_0) ) 0)(>= (* 1. 1)  0)(>= (+ (* 1 nonexclusive_0) (* -1. 1) ) 0)) (and (>= (+ (* _a_8_ unowned_0) (* _a_9_ 1) (* _a_10_ invalid_0) (* _a_11_ nonexclusive_0) (* _a_12_ exclusive_0) ) 0)))))
(assert (forall ((unowned_0 Real) (total_0 Real) (exclusive_0 Real) (nonexclusive_0 Real) (invalid_0 Real) ) (=> (and (>= (+ (* 1 exclusive_0) (* 0 1) ) 0)(>= (+ (* 1 nonexclusive_0) (* 0 1) ) 0)(>= (+ (* 1 unowned_0) (* 0 1) ) 0)(>= (+ (* 1 invalid_0) (* 0 1) ) 0)(>= (+ (* 1 total_0) (* -1 unowned_0) (* -1 invalid_0) (* -1 exclusive_0) (* -1 nonexclusive_0) ) 0)(>= (+ (* 1 unowned_0) (* 1 invalid_0) (* 1 exclusive_0) (* 1 nonexclusive_0) (* -1 total_0) ) 0)(>= (* 1. 1)  0)(>= (+ (* 1 nonexclusive_0) (* -1. 1) ) 0)) (and (>= (+ (* 1 total_0) (* (* -1 _a_8_) unowned_0) (* (+ -1. (* -1 _a_9_)) 1) (* (* -1 _a_10_) invalid_0) (* (* -1 _a_11_) nonexclusive_0) (* (+ -1 (* -1 _a_12_)) exclusive_0) ) 0)))))
(assert (forall ((unowned_0 Real) (total_0 Real) (exclusive_0 Real) (nonexclusive_0 Real) (invalid_0 Real) ) (=> (and (>= (+ (* 1 exclusive_0) (* 0 1) ) 0)(>= (+ (* 1 nonexclusive_0) (* 0 1) ) 0)(>= (+ (* 1 unowned_0) (* 0 1) ) 0)(>= (+ (* 1 invalid_0) (* 0 1) ) 0)(>= (+ (* 1 total_0) (* -1 unowned_0) (* -1 invalid_0) (* -1 exclusive_0) (* -1 nonexclusive_0) ) 0)(>= (+ (* 1 unowned_0) (* 1 invalid_0) (* 1 exclusive_0) (* 1 nonexclusive_0) (* -1 total_0) ) 0)(>= (* 1. 1)  0)(>= (+ (* 1 nonexclusive_0) (* -1. 1) ) 0)) (and (>= (+ (* _a_8_ unowned_0) (* (+ 1. _a_9_) 1) (* _a_10_ invalid_0) (* _a_11_ nonexclusive_0) (* (+ 1 _a_12_) exclusive_0) (* -1 total_0) ) 0)))))
(assert (forall ((unowned_0 Real) (total_0 Real) (exclusive_0 Real) (nonexclusive_0 Real) (invalid_0 Real) ) (=> (and (>= (+ (* 1 exclusive_0) (* 0 1) ) 0)(>= (+ (* 1 nonexclusive_0) (* 0 1) ) 0)(>= (+ (* 1 unowned_0) (* 0 1) ) 0)(>= (+ (* 1 invalid_0) (* 0 1) ) 0)(>= (+ (* 1 total_0) (* -1 unowned_0) (* -1 invalid_0) (* -1 exclusive_0) (* -1 nonexclusive_0) ) 0)(>= (+ (* 1 unowned_0) (* 1 invalid_0) (* 1 exclusive_0) (* 1 nonexclusive_0) (* -1 total_0) ) 0)(>= (* 1. 1)  0)(>= (+ (* 1 unowned_0) (* -1. 1) ) 0)) (and (>= (+ (* 1 exclusive_0) (* 1. 1) ) 0)))))
(assert (forall ((unowned_0 Real) (total_0 Real) (exclusive_0 Real) (nonexclusive_0 Real) (invalid_0 Real) ) (=> (and (>= (+ (* 1 exclusive_0) (* 0 1) ) 0)(>= (+ (* 1 nonexclusive_0) (* 0 1) ) 0)(>= (+ (* 1 unowned_0) (* 0 1) ) 0)(>= (+ (* 1 invalid_0) (* 0 1) ) 0)(>= (+ (* 1 total_0) (* -1 unowned_0) (* -1 invalid_0) (* -1 exclusive_0) (* -1 nonexclusive_0) ) 0)(>= (+ (* 1 unowned_0) (* 1 invalid_0) (* 1 exclusive_0) (* 1 nonexclusive_0) (* -1 total_0) ) 0)(>= (* 1. 1)  0)(>= (+ (* 1 unowned_0) (* -1. 1) ) 0)) (and (>= (* 0 1)  0)))))
(assert (forall ((unowned_0 Real) (total_0 Real) (exclusive_0 Real) (nonexclusive_0 Real) (invalid_0 Real) ) (=> (and (>= (+ (* 1 exclusive_0) (* 0 1) ) 0)(>= (+ (* 1 nonexclusive_0) (* 0 1) ) 0)(>= (+ (* 1 unowned_0) (* 0 1) ) 0)(>= (+ (* 1 invalid_0) (* 0 1) ) 0)(>= (+ (* 1 total_0) (* -1 unowned_0) (* -1 invalid_0) (* -1 exclusive_0) (* -1 nonexclusive_0) ) 0)(>= (+ (* 1 unowned_0) (* 1 invalid_0) (* 1 exclusive_0) (* 1 nonexclusive_0) (* -1 total_0) ) 0)(>= (* 1. 1)  0)(>= (+ (* 1 unowned_0) (* -1. 1) ) 0)) (and (>= (* 0 1)  0)))))
(assert (forall ((unowned_0 Real) (total_0 Real) (exclusive_0 Real) (nonexclusive_0 Real) (invalid_0 Real) ) (=> (and (>= (+ (* 1 exclusive_0) (* 0 1) ) 0)(>= (+ (* 1 nonexclusive_0) (* 0 1) ) 0)(>= (+ (* 1 unowned_0) (* 0 1) ) 0)(>= (+ (* 1 invalid_0) (* 0 1) ) 0)(>= (+ (* 1 total_0) (* -1 unowned_0) (* -1 invalid_0) (* -1 exclusive_0) (* -1 nonexclusive_0) ) 0)(>= (+ (* 1 unowned_0) (* 1 invalid_0) (* 1 exclusive_0) (* 1 nonexclusive_0) (* -1 total_0) ) 0)(>= (* 1. 1)  0)(>= (+ (* 1 unowned_0) (* -1. 1) ) 0)) (and (>= (+ (* _a_13_ unowned_0) (* _a_14_ 1) (* _a_15_ invalid_0) (* _a_16_ nonexclusive_0) (* _a_17_ exclusive_0) ) 0)))))
(assert (forall ((unowned_0 Real) (total_0 Real) (exclusive_0 Real) (nonexclusive_0 Real) (invalid_0 Real) ) (=> (and (>= (+ (* 1 exclusive_0) (* 0 1) ) 0)(>= (+ (* 1 nonexclusive_0) (* 0 1) ) 0)(>= (+ (* 1 unowned_0) (* 0 1) ) 0)(>= (+ (* 1 invalid_0) (* 0 1) ) 0)(>= (+ (* 1 total_0) (* -1 unowned_0) (* -1 invalid_0) (* -1 exclusive_0) (* -1 nonexclusive_0) ) 0)(>= (+ (* 1 unowned_0) (* 1 invalid_0) (* 1 exclusive_0) (* 1 nonexclusive_0) (* -1 total_0) ) 0)(>= (* 1. 1)  0)(>= (+ (* 1 unowned_0) (* -1. 1) ) 0)) (and (>= (+ (* 1 total_0) (* (* -1 _a_13_) unowned_0) (* (+ -1. (* -1 _a_14_)) 1) (* (* -1 _a_15_) invalid_0) (* (* -1 _a_16_) nonexclusive_0) (* (+ -1 (* -1 _a_17_)) exclusive_0) ) 0)))))
(assert (forall ((unowned_0 Real) (total_0 Real) (exclusive_0 Real) (nonexclusive_0 Real) (invalid_0 Real) ) (=> (and (>= (+ (* 1 exclusive_0) (* 0 1) ) 0)(>= (+ (* 1 nonexclusive_0) (* 0 1) ) 0)(>= (+ (* 1 unowned_0) (* 0 1) ) 0)(>= (+ (* 1 invalid_0) (* 0 1) ) 0)(>= (+ (* 1 total_0) (* -1 unowned_0) (* -1 invalid_0) (* -1 exclusive_0) (* -1 nonexclusive_0) ) 0)(>= (+ (* 1 unowned_0) (* 1 invalid_0) (* 1 exclusive_0) (* 1 nonexclusive_0) (* -1 total_0) ) 0)(>= (* 1. 1)  0)(>= (+ (* 1 unowned_0) (* -1. 1) ) 0)) (and (>= (+ (* _a_13_ unowned_0) (* (+ 1. _a_14_) 1) (* _a_15_ invalid_0) (* _a_16_ nonexclusive_0) (* (+ 1 _a_17_) exclusive_0) (* -1 total_0) ) 0)))))
(check-sat)
(get-model)

